(set-logic ALL)
(declare-datatype Tuple ((empty) (mkTuple (getField0 Int)(getField1 Int)(getField2 Int))))

(declare-var A_preCon (Seq Int))
(declare-var A_postCon (Seq Int))
(declare-var t_preCon Int)
(declare-var t_postCon Int)
(declare-var wt_preCon Int)
(declare-var wt_postCon Int)
(declare-var wb_preCon Int)
(declare-var wb_postCon Int)
(declare-var bb_preCon Int)
(declare-var bb_postCon Int)

(define-fun preCondition ((A_preCon (Seq Int)) (t_preCon Int) (wt_preCon Int) (wb_preCon Int) (bb_preCon Int)) Bool (and (and (forall ( (var_q Int)) (or (not (and (>= var_q 0) (< var_q 0))) (= (seq.nth A_preCon var_q) 0))) (forall ( (var_q Int)) (or (not (and (>= var_q 0) (< var_q 0))) (= (seq.nth A_preCon var_q) 1))) (forall ( (var_q Int)) (or (not (and (>= var_q (seq.len A_preCon)) (< var_q (seq.len A_preCon)))) (= (seq.nth A_preCon var_q) 2))) (<= 0 0) (<= 0 (seq.len A_preCon)) (<= (seq.len A_preCon) (seq.len A_preCon)) (not false) (> (seq.len A_preCon) 0) (<= 0 wb_preCon) (<= wb_preCon wt_preCon) (<= wt_preCon bb_preCon) (<= bb_preCon (seq.len A_preCon)) (forall ( (var_i Int)) (=> (and (>= var_i 0) (< var_i (seq.len A_preCon))) (or (= (seq.nth A_preCon var_i) 0) (= (seq.nth A_preCon var_i) 1) (= (seq.nth A_preCon var_i) 2)))) (= true true) (= true true) true)))

(define-fun postCondition ((A_postCon (Seq Int)) (t_postCon Int) (wt_postCon Int) (wb_postCon Int) (bb_postCon Int)) Bool (and (and (forall ( (var_q Int)) (or (not (and (>= var_q 0) (< var_q wb_postCon))) (= (seq.nth A_postCon var_q) 0))) (forall ( (var_q Int)) (or (not (and (>= var_q wb_postCon) (< var_q wt_postCon))) (= (seq.nth A_postCon var_q) 1))) (forall ( (var_q Int)) (or (not (and (>= var_q bb_postCon) (< var_q (seq.len A_postCon)))) (= (seq.nth A_postCon var_q) 2))) (<= 0 wb_postCon) (<= wb_postCon wt_postCon) (<= wt_postCon bb_postCon) (<= bb_postCon (seq.len A_postCon)))))

(synth-fun targetFunction ((A (Seq Int)) (t Int) (wt Int) (wb Int) (bb Int)) Tuple)

(declare-var A_in (Seq Int))
(declare-var t_in Int)
(declare-var wt_in Int)
(declare-var wb_in Int)
(declare-var bb_in Int)
(declare-var wt_out Int)
(declare-var wb_out Int)
(declare-var bb_out Int)

(constraint (forall ((A_in (Seq Int)) (t_in Int) (wt_in Int) (wb_in Int) (bb_in Int) (wt_out Int) (wb_out Int) (bb_out Int)) (=>
	(and
		(preCondition A_in t_in wt_in wb_in bb_in)
		(= wt_out (getField0 (targetFunction A_in t_in wt_in wb_in bb_in)))
		(= wb_out (getField1 (targetFunction A_in t_in wt_in wb_in bb_in)))
		(= bb_out (getField2 (targetFunction A_in t_in wt_in wb_in bb_in)))
	)
	(and
		(postCondition A_in t_in wt_out wb_out bb_out)
	)
)))
(check-synth)